M+/Instances/S1-15-M+/S1-5-15-1-s-M+.txt
     100      15    0.05
       3       2       2       1       2       3       1       1       2       2       2       1       2       1       2      15       4       1       8      10      13       1      13       8      10      15      12       2      15      11       1
       2       2       2       2       3       1       3       2       3       2       2       2       3       2       3      13       0       7      10       4      16      13      13      11      15       1       7       0      16      13       2
       2       3       2       2       3       1       3       1       1       2       1       1       3       1       1       3       4       0       3       8      16      10       3       8      13       1      15       0       0      11       1
       1       3       2       2       1       2       3       3       1       3       3       1       2       2       2       6       1       9       5       0      10      16       4       1       6       9       7      13       2       3       3
       1       2       2       2       3       2       1       3       3       2       1       2       1       3       2      14       6       5      16       3      12      10       4       1       8       2       1      15       8       6       3
       1       3       1       1       2       3       2       3       3       3       2       2       3       2       1      10       1       5       4      13       8      14      15       3       4       8       2      13      13      12       3
       3       1       1       3       2       3       1       2       2       1       1       1       3       2       1       8      15       1       2       1      10       6      13       7       2      15      15      15      11      16       1
       3       1       3       3       2       2       1       2       2       3       1       3       1       1       2      14       1      14       1      16      10       9       5       2      15       3       4      14      14       6       3
       2       1       1       3       3       2       2       3       3       3       2       3       3       2       1       5       9      11       8      12      15      10      16      15       8      14       0       4       3       4       3
       2       3       1       3       3       1       2       3       2       3       2       3       1       1       3       5      16       5       8       5      16      13       7       8       8       0      13       3       3      11       1
       2       2       1       3       2       3       2       2       2       3       3       1       3       2       2       6       8      15      14       5      13       5       1       4      14      12      15       0       3       7       1
       3       2       1       1       1       2       2       2       1       1       1       1       2       1       2       9      15      14       1      16      10       4       9       5      12       5       5      15      10      14       2
       3       1       2       2       3       2       2       3       2       1       3       2       3       1       3      10       6       6       4       1       0       3       0      14       2       8       0       1      12      10       2
       3       3       1       3       2       1       3       2       1       1       1       1       2       1       3       0      10       8       2       7      15       6      14       4      15       1      10       3       9       4       2
       2       1       1       2       3       3       1       2       1       1       3       3       3       2       3      12      14       7       2      13       9      16       8      10       1      13       7      16       4       0       2
       2       2       2       1       3       1       1       3       1       1       3       3       3       1       2       8       2       6      14      16       7      12      12       5      16      16      13      12       3       3       1
       1       1       1       1       2       3       3       2       2       2       1       1       1       1       3       5       5       4       6      14       4      13       8      12      14       3       7       5      15       8       2
       3       3       1       3       2       3       1       3       1       1       1       2       3       2       1       8       0      15       8      10       2       3      11       3      14      11      16       6      10      11       2
       2       1       3       1       1       1       2       3       2       3       1       3       1       3       3       8      13      11       5       9       3      12       5       2      13       8      16       5       1      12       2
       2       2       1       1       1       1       3       1       2       3       3       1       3       2       1      13       4      15       6      12       1      12      14      13      12       0      10       5       2      12       1
       3       3       1       2       3       3       1       2       3       2       2       1       2       3       3       9       7       2       6       3      11       9       1       6      14       2      10       0       8       3       1
       2       1       1       1       2       3       3       3       2       3       1       2       2       1       2       5       6      11       5      10      12       6      12      13       8       2      10       2      11      11       2
       3       1       2       1       2       1       2       1       1       3       3       3       3       3       1       3       4      15       1      11      15       0       0       6       9      10       8       2       4       7       1
       3       3       1       3       1       2       3       3       2       1       1       2       3       2       2       1       9      12      10      15       8       7       9      16       7      11       6       4      10      13       1
       2       2       3       3       2       1       3       2       1       2       2       2       3       2       3      12       3      10       3      13      13       7       8       7       7       7      13       2       3       3       3
       3       2       3       2       3       2       1       3       2       1       3       2       3       2       3      12       4      12       3      16       6       3       0       9       9       7       8       9       9      16       1
       2       2       2       3       3       3       3       1       2       1       3       3       2       1       1       1       5      12      12       1       3       2       4      10       2      16      13       6      15      15       1
       1       1       1       3       3       3       3       1       3       3       3       3       3       3       3      11      14      15      12       9      14       1       8       8       0      12      10       7      16      14       2
       3       1       3       2       1       3       2       2       1       3       2       2       3       3       1      16      12       1       8      11       9      14      10      11       4       3      11       8       8       2       3
       1       3       2       1       2       3       3       2       2       1       3       2       1       2       1       5      11       8       4      14      10       8      15      14      10       9      11      10       0       7       3
       3       1       1       2       2       3       3       2       1       1       3       3       1       2       1       9       3       9       3      12       9       1      13      13       2      15       7       4       7      10       2
       1       2       3       2       2       1       1       2       2       1       2       3       2       1       1       3      10      15       4      11      11      11      16       8      14       5       0       7       2       0       3
       2       2       3       1       1       2       1       3       2       3       2       2       1       1       1       9       1       3       5       1      13       4       1      14       8      10      11       8      10      13       2
       1       2       1       1       2       1       3       1       1       3       1       1       2       3       1       4       5       7      11      10      11      15      13      11       0       6      11       5      13       4       2
       1       2       2       3       1       1       3       3       3       2       2       3       2       3       2       0       7       3      16       8      16      16       7       2       9       0      13      12      14      15       3
       2       3       2       2       2       1       3       1       3       3       1       1       1       2       3       4      10       2      10       0       1       8       7       8       4       3      13      13      12      15       2
       2       3       2       3       3       1       1       3       1       3       3       2       1       2       2      12      12       0       6       4       7      13       5       8       9      16       0       1       1       7       3
       1       3       3       1       2       1       1       2       2       2       1       3       1       3       1       2       4      12      11       6       1       1      12       2       2       3      15       2      15      16       3
       1       2       2       2       3       3       2       2       2       2       3       2       2       3       3       6       9      15       5       1      15      13       0       6       1      10       0       6       7       9       2
       1       3       2       2       2       3       2       2       3       1       1       1       3       3       2       3       3       6       5      15      13       0      12      10       2      13       9       4      14       7       2
       1       3       2       2       3       3       1       1       2       3       2       3       2       2       1       9       6       1       5      15       5       2      16       2      10      12       7      11       2      15       1
       2       1       2       3       1       1       1       2       1       3       3       3       2       1       2       2      11       7      16      16      12       7      14      10      14      15       3      12       7       7       2
       1       2       2       3       3       1       2       1       3       2       3       3       1       2       3      16      13      10       0       3       3      12       2       7      16       9       4       8       3       1       2
       2       2       3       1       1       2       2       1       2       2       2       2       1       1       3      14      14       8       0       6       6       2      16       9       7      12      16      14       0       5       3
       2       3       1       2       2       2       3       1       2       3       3       2       3       1       3      14      14       8      11      14       6      16       8       3       0       7       5       5      14       4       3
       1       2       3       3       2       3       3       3       1       1       1       2       3       2       3      13       0      16       9       3       2       3       7       1      10       4      14       5       5       2       2
       1       3       2       1       1       2       3       3       2       2       2       1       3       1       2      12       1      13       2       9      12       7       7      16       9      14      13      16      15      10       3
       3       2       1       1       1       2       3       2       2       3       1       3       1       3       1       9      11       4       0       2       7       8      10       5       2       2       9      15       5       9       1
       2       1       2       1       3       1       1       1       3       2       3       3       3       2       3       0       4      15      13      11      10      15      10       3       7      15      12      16       3       7       3
       3       1       3       1       3       1       1       1       1       3       2       1       1       3       2       6       5       5       8       6       1       6      11       1       2       4       9      15       8       1       3
       3       3       3       3       1       2       3       3       3       2       1       2       2       2       2       3       9       5       6      14       4       0      10      10      13      15      15      13       8       7       3
       2       1       2       3       2       3       1       2       1       3       1       1       1       1       2       2       9       9       8       5       2       1       8      14      11      10       6      16       2      14       2
       2       2       2       3       1       2       1       3       1       1       2       3       2       2       3      10       1       3      12       1       6       9       7      11       3      15      15      16      10      15       1
       1       2       3       2       3       2       1       2       3       1       2       2       1       3       3      14      13      14       9       4       1       1       9       3       1      16       0       5       0      10       2
       2       1       1       3       3       1       1       1       3       2       2       2       3       3       1      14       8      11      10       7       5       9      11       6      14      12      13      13       7       8       3
       3       1       1       1       3       1       2       2       1       3       2       3       3       3       3      16       5       8       1       0      11       7       0       6       5       3      11       7      10      15       1
       2       3       3       3       2       1       2       3       3       3       1       3       2       2       3       6       9       4       4       9       4      10      11      11       7      13       0       7      14       0       3
       3       3       3       2       2       1       1       3       3       1       3       1       2       2       2      15       5       0       2      12      14       8      14       5      13       3      14      16       8       4       2
       2       3       3       2       3       1       3       3       3       1       1       2       2       1       1       0       2       1      10       6      12      15      11      15       5       1       9      11       2      15       3
       1       3       2       2       1       1       1       1       2       2       1       1       2       3       2      13      16       7       2      16      10      14       8      16       3       6      14      15       5       7       3
       1       3       3       1       2       1       1       2       2       3       3       2       2       2       1      12      16       7       2       2       7       7      14       1      14       8       3       4       3      15       2
       3       1       1       1       1       2       2       2       2       3       1       1       1       2       3       2       2       1      12      15      10      11      13      13       5      12      12       5      10       7       3
       3       1       2       2       2       2       3       2       2       3       2       1       2       1       3      16      14       3       8       5       0       7      11       9       0      10       1       0       6       6       1
       2       3       3       1       2       3       2       2       1       1       1       2       1       3       3       7      14       5       7      14       1       0       3       6       4       1       2      14       1       3       2
       1       2       3       2       2       2       3       3       1       1       1       1       2       1       3      13       4       7      16       6       2       9      15       5       9       9      13       6      13       3       1
       2       1       1       1       2       1       3       2       3       1       2       1       2       3       1       4       7      11       7      10       0       1       0       2       5       6      11      14       5       4       1
       2       2       3       3       2       2       3       3       1       1       2       3       2       3       2      15       2       5       6      11       0       7       9      12       9       9       6      16      15       7       2
       2       3       1       1       1       1       3       3       3       2       3       3       1       3       2      15       8      13       7      10       3       5      16       9      10       6       9       0      16       2       3
       3       3       2       1       3       1       2       2       1       1       1       1       2       3       1      16      11       0      10      16       4       6       2       3      10      11      14      11       9      10       2
       3       1       1       3       3       1       2       3       2       2       2       1       3       2       3       6      14      13      14      10       6       2       8       0       7       3       9      10      13       2       2
       2       1       3       2       2       3       3       1       2       2       3       3       2       3       2       0       9       8      10       5       0       8       2       4       6       4       8       7       3      14       3
       1       2       3       3       3       1       3       2       1       2       2       1       3       3       2       3       7      15       6      12       0      10       0      12       2      10       8      16      12      16       2
       3       2       1       2       2       3       2       2       3       1       1       2       1       2       3       9       6       7      12      10       0       8       9      14      16       8      15       1       7      14       3
       3       2       3       2       3       3       2       1       2       2       2       3       1       1       1       8      11       4       8       8       2      13       0       6       4      14       1       1      13       1       3
       3       1       1       1       2       3       2       1       2       1       1       2       3       1       1      13      15      13       0      10      16       1       8      14       0      15       0       7       3      12       3
       3       3       1       1       1       3       2       3       1       2       1       1       1       2       2       0       8       3      15       5       8      10      12       7       9       1       1       0       9      14       2
       1       3       1       3       3       1       2       1       1       1       2       2       1       2       2       4       2      12      14       2       6       7       4      11      13       0      12      10       3      11       1
       3       3       2       3       1       2       1       3       1       2       3       1       1       1       1       9       7       7      13       3      16       1       5      14      14       6       1       5       0       2       2
       3       2       2       2       1       1       3       2       1       1       2       1       1       3       2      14       7      16      11      14       3       7       2       0       2       2       7       7      16      11       3
       1       1       3       2       2       3       1       3       3       3       1       3       2       2       3       9       9       6       4       4       7       8       0       0      14      14       0       8       7       6       1
       1       3       2       2       3       1       1       1       1       2       3       1       2       1       3       4      11       9       5      15       8       8      13      12       1      13       8      14      13      10       3
       3       3       1       3       2       1       2       3       1       2       3       1       2       2       1       2       1      14       0       3       0       0       2       3       0      15      14      12       9       7       3
       1       2       2       2       3       1       1       1       1       1       3       2       3       3       3       4       9       5       2      16       3      12       2      12       4       5       7       5       8       8       1
       2       1       3       3       2       3       2       3       3       2       3       3       3       1       1       8      11       7       6       7      13      10       4       0       0       5      10      13      14       2       2
       2       3       2       2       1       2       1       1       3       2       3       1       1       3       1      11       3       8      16       9      14       3       9       8       2       0      13      12      16      16       2
       3       1       1       3       1       1       3       1       1       1       1       2       1       1       3       1       5       2      13      10       6      14      15       9       2      14      13      16      11      13       1
       2       2       2       2       1       1       1       2       3       3       2       3       3       3       3      11       6       1      15       9       7      14      12       4      11       3       2       8       1       4       1
       2       1       2       1       2       3       2       3       2       3       1       2       1       2       3       5       4      11      15      11       8       5       2      10      10       3      14      15       7      12       1
       2       2       1       2       2       1       3       1       2       3       1       2       1       3       2      15       6      15      10       1      15       8       9       4      11       3       9      15       4       8       3
       3       2       2       1       1       2       3       3       2       1       2       1       2       1       1       5       6       7       4       0       4      16       6      14      12       4       8       7      10       3       3
       2       2       2       3       3       2       1       1       2       3       2       3       1       1       2      14       5      16      10      14      15       8      15      13      16      10       3       8       0       4       1
       1       1       3       1       2       3       3       1       1       2       2       3       3       2       2      15      12       9       5      11       8       7      16       4      12       6      14       4       6      14       3
       3       1       3       3       1       2       3       1       3       3       2       2       1       3       1       4       8       8       6      15      12       7      15      12       1       1       2      16       8      12       1
       3       2       1       2       3       1       2       2       3       1       1       1       2       1       1       1       6       8       1       2       5       2       5       6       6       9       1       3       6      14       3
       2       1       2       1       2       1       3       3       3       3       2       1       2       3       1      11      13       0       9      15       8      10       1       7       0       0       5       5      15       1       1
       2       1       3       1       1       3       1       3       1       3       1       3       1       3       3       6       0      11       6       9      12      12       3       9       2      12       1       1       5       7       1
       3       2       3       1       2       1       3       2       2       3       3       1       2       1       1       5       8       7       1       5       8      10      14       2      15      11       7       4      11      12       3
       1       1       1       3       3       2       2       3       2       3       1       3       2       2       1       0       7       5      15       0      16      15       9      15       6       9       7       8      16       6       3
       1       2       3       3       2       3       3       3       1       3       1       1       2       2       2       7       4       0       0      12       5      13       9      12      14       6       9      15       2       4       1
       1       2       2       2       2       1       2       3       2       2       3       1       3       1       3      11       1       4      16      16      10      11      14      13       0      16       9      16       4       9       3
      25      25      22      16      17      16      20      16      13      14      17      22      16      18      20
      51      49      43      32      35      30      41      33      24      28      32      42      31      36      40
     120     107     109      41      69      79      68      84      61      54      64     128      58      78     109